//Setting the Size and grid dimentions----------------------------|
SetGridSize(450, 250, 16)
SetCellSize(2e-9, 2e-9, 2e-9)

//Defining the geomatery of the simulation------------------------|
defregion(0, imageshape("frac4.png"))
defregion(1, imageshape("frac4.png").inverse())

//Defining the initial direction of magnetization-----------------|
m = randomMag()
relax()//More efficient for high energy states

//Defining value of saturation Magnetization----------------------|
Msat.SetRegion(0, 1700e3)
Msat.SetRegion(1, 1400e3)

//Defining the vale and Direction of anisotropy-------------------|
axis1 := vector(1, 0, 0)
axis2 := vector(0, 1, 0)
Kc1.SetRegion(0, 48e3)
Kc1.SetRegion(1, 520e3)
anisC1.SetRegion(0, axis1)
anisC2.SetRegion(0, axis2)
anisC1.SetRegion(1, axis1)
anisC2.SetRegion(1, axis2)

//Defining exchange interactions----------------------------------|
Aex.SetRegion(0, 21e-12)
Aex.SetRegion(1, 30e-12)
ext_ScaleExchange(0, 1, 0.5)

//Defining the excitation-----------------------------------------|
Bmax  := 400.0e-3
Bstep :=  1.0e-3
MinimizerStop = 1e-6
TableAdd(B_ext)

	for B:=0.0; B<=Bmax; B+=Bstep{
	    B_ext = vector(B, 0, 0)
	    minimize()   // small changes best minimized by minimize()
	    tablesave()
	}

for B:=Bmax; B>=-Bmax; B-=Bstep{
    B_ext = vector(B, 0, 0)
    minimize()   // small changes best minimized by minimize()
    tablesave()
}

for B:=-Bmax; B<=Bmax; B+=Bstep{
    B_ext = vector(B, 0, 0)
    minimize()   // small changes best minimized by minimize()
    tablesave()
}
